109343
25, 69, 15, 58, 34, 57, 3, 23, 49, 63, 78, 12, 42, 43, 50, 4, 32, 31, 65, 55, 79, 33, 52, 41, 39, 83, 8, 28, 35, 11, 27, 7, 17, 56, 81, 60, 47, 10, 44, 53, 29, 75, 51, 72, 59, 68, 61, 6, 30, 2, 38, 16, 40, 74, 77, 20, 67, 76, 26, 36, 66, 71, 9, 82, 22, 5, 19, 48, 18, 37, 13, 45, 80, 62, 70, 14, 1, 64, 73, 46, 54, 21, 24
